This is Ipopt version 3.13.4, running with linear solver ma27.

Number of nonzeros in equality constraint Jacobian...:   430009
Number of nonzeros in inequality constraint Jacobian.:        0
Number of nonzeros in Lagrangian Hessian.............:   620009

Total number of variables............................:   130009
                     variables with only lower bounds:        0
                variables with lower and upper bounds:        0
                     variables with only upper bounds:        0
Total number of equality constraints.................:    90009
Total number of inequality constraints...............:        0
        inequality constraints with only lower bounds:        0
   inequality constraints with lower and upper bounds:        0
        inequality constraints with only upper bounds:        0

iter    objective    inf_pr   inf_du lg(mu)  ||d||  lg(rg) alpha_du alpha_pr  ls
   0  1.9367707e+04 9.80e-02 1.00e+02  -1.0 0.00e+00    -  0.00e+00 0.00e+00   0
   1  6.0269260e+04 2.38e-07 7.84e+03  -1.0 1.03e+01    -  1.00e+00 1.00e+00h  1
